32	0

0	1	2
2	1	3
9	1	4
9	1	5
9	1	6
8	1	7
6	1	8
10	1	9
1	1	10
9	1	11
7	1	12
3	1	13
9	2	14	15
2	1	16
2	1	16
4	2	17	18
1	2	19	20
1	2	19	20
9	1	21
2	1	21
5	1	22
1	1	23
6	1	24
2	1	25
3	1	26
3	1	27
3	1	28
2	1	29
8	1	30
9	1	31
2	1	32
0	0
